 Code  2733
 Dimension, Fixed Cost
   100        3000
 Facility, Client, Transportation Cost
     1        9           4
     1       21           0
     1       41           4
     1       49           2
     1       65           4
     1       68           3
     1       75           3
     1       77           4
     1       80           4
     1       84           2
     2       15           3
     2       21           2
     2       32           3
     2       45           0
     2       46           0
     2       85           1
     2       92           0
     2       95           0
     2       96           0
     2       97           0
     3        7           4
     3        9           0
     3       13           1
     3       21           1
     3       23           3
     3       40           4
     3       55           1
     3       58           2
     3       80           3
     3       82           4
     4       22           3
     4       28           3
     4       30           0
     4       37           3
     4       46           3
     4       48           4
     4       52           1
     4       66           2
     4       74           1
     4       76           3
     5       26           4
     5       43           4
     5       50           0
     5       66           2
     5       72           4
     5       86           2
     5       87           1
     5       91           1
     5       96           4
     5       98           3
     6        8           4
     6       12           2
     6       24           3
     6       32           4
     6       40           4
     6       47           1
     6       58           4
     6       86           1
     6       90           3
     6       94           1
     7        4           3
     7       14           2
     7       32           0
     7       39           3
     7       46           4
     7       67           3
     7       76           3
     7       77           2
     7       84           3
     7       85           2
     8       19           2
     8       24           2
     8       32           1
     8       43           3
     8       76           2
     8       84           4
     8       85           1
     8       92           3
     8       94           4
     8       95           1
     9        6           1
     9       52           0
     9       58           4
     9       60           0
     9       70           2
     9       79           4
     9       82           3
     9       84           4
     9       90           0
     9       91           0
    10        1           0
    10       26           4
    10       27           3
    10       34           4
    10       38           2
    10       75           3
    10       78           0
    10       79           0
    10       92           4
    10       99           2
    11        2           2
    11        8           1
    11       20           0
    11       52           0
    11       56           3
    11       69           4
    11       77           1
    11       78           4
    11       79           2
    11       86           4
    12        3           4
    12        6           2
    12       12           2
    12       14           1
    12       20           3
    12       25           4
    12       29           1
    12       36           2
    12       57           2
    12       63           0
    13        2           4
    13       10           2
    13       22           4
    13       24           3
    13       34           1
    13       72           4
    13       90           4
    13       91           4
    13       96           2
    13       97           4
    14       11           1
    14       16           2
    14       31           3
    14       33           0
    14       39           0
    14       43           2
    14       63           4
    14       76           2
    14       83           1
    14       86           0
    15        1           1
    15       24           1
    15       64           4
    15       70           3
    15       71           2
    15       76           0
    15       77           2
    15       82           4
    15       85           0
    15       86           0
    16       12           2
    16       17           2
    16       28           3
    16       35           4
    16       38           0
    16       41           2
    16       44           0
    16       51           1
    16       81           2
    16       83           0
    17        2           3
    17        4           3
    17        7           4
    17       15           4
    17       18           1
    17       31           3
    17       38           3
    17       42           4
    17       48           0
    17       56           2
    18        4           2
    18       10           2
    18       30           2
    18       31           3
    18       41           4
    18       54           4
    18       69           4
    18       73           1
    18       74           3
    18       81           4
    19        2           1
    19        3           0
    19        4           2
    19        9           2
    19       14           3
    19       16           2
    19       57           1
    19       59           0
    19       64           3
    19       88           1
    20        9           2
    20       13           0
    20       22           2
    20       23           3
    20       33           2
    20       47           0
    20       48           4
    20       51           1
    20       66           3
    20       76           2
    21       16           3
    21       28           0
    21       35           2
    21       46           4
    21       49           0
    21       53           4
    21       63           2
    21       71           4
    21       79           2
    21       82           2
    22       19           1
    22       31           2
    22       35           2
    22       39           3
    22       54           3
    22       56           0
    22       61           1
    22       75           3
    22       83           2
    22       94           3
    23        1           0
    23       12           2
    23       15           4
    23       20           1
    23       28           4
    23       33           0
    23       35           3
    23       36           0
    23       54           4
    23       55           0
    24       19           1
    24       26           1
    24       74           4
    24       81           0
    24       89           0
    24       93           3
    24       95           4
    24       97           0
    24       98           4
    24      100           3
    25       10           4
    25       13           3
    25       15           1
    25       18           3
    25       24           4
    25       29           4
    25       37           0
    25       40           3
    25       47           1
    25       53           1
    26        1           2
    26        5           3
    26       22           3
    26       25           2
    26       32           4
    26       45           4
    26       71           0
    26       80           1
    26       87           2
    26       96           0
    27        6           0
    27       18           1
    27       22           3
    27       25           4
    27       31           3
    27       34           0
    27       35           2
    27       50           4
    27       60           1
    27       84           4
    28       10           0
    28       17           4
    28       24           3
    28       30           2
    28       33           4
    28       39           1
    28       40           2
    28       47           4
    28       79           4
    28       81           3
    29       10           1
    29       53           4
    29       66           4
    29       68           4
    29       82           1
    29       85           4
    29       94           3
    29       95           3
    29       96           0
    29       97           3
    30        2           3
    30        5           1
    30        6           1
    30       51           0
    30       63           3
    30       69           1
    30       74           2
    30       75           2
    30       85           0
    30       90           1
    31        1           1
    31        5           1
    31       11           0
    31       38           1
    31       39           2
    31       67           0
    31       73           4
    31       77           1
    31       89           2
    31       92           0
    32       10           3
    32       14           0
    32       25           1
    32       27           4
    32       41           1
    32       70           2
    32       90           4
    32       95           2
    32       99           0
    32      100           4
    33       11           2
    33       14           3
    33       20           4
    33       23           2
    33       25           0
    33       49           0
    33       51           3
    33       72           3
    33       91           2
    33       93           2
    34        5           0
    34        8           4
    34       10           0
    34       21           3
    34       22           4
    34       35           0
    34       37           2
    34       38           1
    34       47           4
    34       67           2
    35       12           4
    35       18           3
    35       27           0
    35       43           2
    35       44           0
    35       62           3
    35       65           3
    35       69           3
    35       72           1
    35       75           3
    36        9           1
    36       14           3
    36       15           2
    36       17           1
    36       27           3
    36       54           0
    36       55           4
    36       70           3
    36       73           0
    36       77           4
    37        4           2
    37        6           3
    37       32           1
    37       42           0
    37       47           1
    37       57           2
    37       73           3
    37       90           3
    37       96           4
    37       97           0
    38        9           0
    38       24           2
    38       33           2
    38       34           0
    38       40           1
    38       43           2
    38       53           4
    38       55           1
    38       64           3
    38       65           0
    39       16           2
    39       42           3
    39       46           1
    39       51           1
    39       52           0
    39       53           4
    39       56           2
    39       60           3
    39       79           0
    39       83           1
    40       31           4
    40       32           4
    40       42           4
    40       44           3
    40       52           3
    40       69           3
    40       73           1
    40       81           0
    40       84           1
    40       86           0
    41        6           2
    41        7           4
    41       15           3
    41       37           3
    41       44           2
    41       45           2
    41       46           0
    41       71           3
    41       74           4
    41       89           4
    42        1           0
    42       16           3
    42       30           0
    42       35           4
    42       48           2
    42       49           0
    42       51           0
    42       58           2
    42       61           2
    42       64           4
    43        3           4
    43       14           2
    43       23           1
    43       24           1
    43       33           2
    43       34           4
    43       49           0
    43       58           3
    43       59           3
    43       74           4
    44        4           1
    44       32           0
    44       50           2
    44       56           3
    44       67           4
    44       78           3
    44       83           4
    44       84           0
    44       88           2
    44       89           3
    45       16           3
    45       40           3
    45       50           3
    45       56           4
    45       64           3
    45       86           1
    45       89           3
    45       93           3
    45       96           3
    45       99           2
    46       18           2
    46       25           0
    46       37           0
    46       45           1
    46       55           3
    46       68           1
    46       70           1
    46       76           0
    46       80           1
    46       83           3
    47        7           4
    47       10           3
    47       11           0
    47       26           0
    47       29           3
    47       30           3
    47       33           3
    47       36           0
    47       39           4
    47       40           4
    48       18           4
    48       38           4
    48       41           3
    48       59           4
    48       64           2
    48       70           3
    48       75           3
    48       83           0
    48       85           3
    48       88           4
    49       10           2
    49       11           0
    49       13           2
    49       34           0
    49       46           0
    49       50           1
    49       57           3
    49       69           1
    49       88           1
    49       93           1
    50        7           2
    50       13           1
    50       17           3
    50       35           4
    50       60           4
    50       68           2
    50       71           0
    50       91           3
    50       93           1
    50       94           2
    51       14           2
    51       29           4
    51       31           0
    51       37           1
    51       42           2
    51       63           3
    51       66           2
    51       68           2
    51       80           0
    51       83           3
    52       11           0
    52       12           0
    52       18           3
    52       36           3
    52       42           3
    52       50           1
    52       55           4
    52       57           1
    52       76           0
    52       83           4
    53        2           2
    53       40           2
    53       61           4
    53       62           3
    53       72           4
    53       80           4
    53       82           2
    53       84           3
    53       88           3
    53       90           0
    54       28           3
    54       48           3
    54       86           1
    54       87           1
    54       89           0
    54       92           2
    54       95           4
    54       96           4
    54       99           0
    54      100           3
    55        5           4
    55       24           3
    55       29           3
    55       36           2
    55       37           1
    55       45           3
    55       62           0
    55       66           1
    55       71           0
    55       72           1
    56        3           4
    56       30           0
    56       41           3
    56       42           3
    56       45           1
    56       57           2
    56       62           3
    56       65           4
    56       77           2
    56       80           2
    57        6           3
    57       24           1
    57       40           2
    57       49           4
    57       50           4
    57       75           1
    57       80           4
    57       82           1
    57       86           4
    57       98           2
    58        3           4
    58       18           1
    58       43           0
    58       62           3
    58       67           2
    58       83           4
    58       97           3
    58       98           0
    58       99           4
    58      100           0
    59        1           3
    59       27           4
    59       34           0
    59       45           2
    59       48           3
    59       77           4
    59       92           3
    59       94           0
    59       98           1
    59      100           4
    60        2           1
    60        4           4
    60       53           3
    60       63           0
    60       79           1
    60       85           2
    60       87           1
    60       91           2
    60       95           3
    60       96           0
    61        2           3
    61        4           2
    61       13           4
    61       25           3
    61       29           0
    61       52           3
    61       69           0
    61       93           1
    61       95           0
    61       98           1
    62       17           4
    62       49           2
    62       51           4
    62       59           1
    62       66           3
    62       67           3
    62       81           2
    62       87           1
    62       91           0
    62       93           3
    63       14           3
    63       21           3
    63       32           3
    63       34           3
    63       52           3
    63       61           1
    63       62           2
    63       63           3
    63       69           4
    63       92           2
    64        3           4
    64        8           1
    64       13           0
    64       27           3
    64       38           2
    64       58           3
    64       60           1
    64       77           0
    64       81           0
    64       82           0
    65        3           0
    65        5           4
    65       41           3
    65       57           4
    65       71           3
    65       82           2
    65       92           4
    65       96           0
    65       99           2
    65      100           0
    66       11           4
    66       12           3
    66       19           1
    66       22           2
    66       41           1
    66       47           1
    66       56           1
    66       60           1
    66       61           1
    66       62           3
    67        7           3
    67        8           0
    67       12           4
    67       17           2
    67       20           1
    67       35           2
    67       70           2
    67       72           1
    67       73           3
    67       86           1
    68       16           0
    68       30           3
    68       43           1
    68       72           0
    68       73           2
    68       76           0
    68       94           2
    68       98           4
    68       99           2
    68      100           3
    69       16           3
    69       19           4
    69       35           1
    69       39           2
    69       49           2
    69       60           0
    69       67           0
    69       74           2
    69       75           2
    69       79           3
    70        3           3
    70        4           3
    70        5           1
    70        7           0
    70        8           2
    70       19           1
    70       26           1
    70       45           0
    70       50           4
    70       57           2
    71        8           0
    71       12           0
    71       19           0
    71       26           2
    71       28           0
    71       36           4
    71       47           2
    71       54           2
    71       64           0
    71       66           0
    72       21           3
    72       29           2
    72       33           2
    72       46           3
    72       48           2
    72       50           4
    72       52           0
    72       53           2
    72       58           4
    72       62           1
    73        5           2
    73       17           1
    73       23           2
    73       37           4
    73       48           0
    73       65           0
    73       68           3
    73       77           4
    73       91           0
    73       97           3
    74        3           0
    74        7           3
    74       19           0
    74       27           0
    74       49           0
    74       58           3
    74       70           4
    74       74           3
    74       78           0
    74       88           2
    75        7           1
    75       13           2
    75       17           0
    75       20           2
    75       21           0
    75       23           3
    75       55           1
    75       56           3
    75       67           4
    75       87           0
    76        6           1
    76       17           3
    76       31           4
    76       34           0
    76       43           1
    76       56           0
    76       65           0
    76       70           4
    76       73           2
    76       75           0
    77        8           3
    77       20           4
    77       36           4
    77       42           4
    77       44           4
    77       48           3
    77       57           2
    77       62           0
    77       68           0
    77       70           0
    78        8           3
    78       10           0
    78       28           0
    78       29           2
    78       30           0
    78       36           1
    78       52           3
    78       64           2
    78       67           4
    78       73           1
    79       12           2
    79       40           4
    79       42           1
    79       47           2
    79       55           3
    79       59           1
    79       88           2
    79       90           3
    79       91           1
    79       93           4
    80        2           2
    80       28           3
    80       30           0
    80       54           2
    80       61           2
    80       66           0
    80       68           2
    80       79           4
    80       87           3
    80       89           3
    81        1           1
    81        5           1
    81       13           2
    81       16           2
    81       29           1
    81       44           2
    81       59           3
    81       60           1
    81       74           1
    81       79           2
    82       15           3
    82       25           1
    82       27           3
    82       41           2
    82       42           1
    82       46           2
    82       50           2
    82       54           3
    82       59           1
    82       71           3
    83       15           4
    83       19           4
    83       23           0
    83       26           3
    83       44           2
    83       47           1
    83       56           0
    83       78           0
    83       81           4
    83       93           4
    84       21           1
    84       37           4
    84       39           2
    84       54           4
    84       63           0
    84       65           2
    84       89           0
    84       93           0
    84       97           0
    84       99           1
    85        6           4
    85        8           2
    85       28           1
    85       53           0
    85       54           2
    85       59           2
    85       60           3
    85       65           4
    85       71           2
    85       78           1
    86        1           4
    86       11           3
    86       18           0
    86       38           4
    86       44           3
    86       65           2
    86       71           1
    86       72           1
    86       84           0
    86       98           3
    87        7           1
    87       32           1
    87       44           0
    87       59           0
    87       64           4
    87       65           1
    87       69           0
    87       85           4
    87       91           1
    87       97           3
    88        2           3
    88       13           0
    88       20           4
    88       28           3
    88       34           4
    88       37           1
    88       60           2
    88       69           2
    88       75           4
    88       78           1
    89        9           4
    89       26           2
    89       38           3
    89       68           3
    89       73           3
    89       84           0
    89       95           4
    89       98           0
    89       99           1
    89      100           0
    90        9           3
    90       21           2
    90       23           0
    90       31           3
    90       45           1
    90       51           2
    90       53           3
    90       76           4
    90       78           0
    90       81           2
    91       15           0
    91       20           2
    91       23           2
    91       26           3
    91       29           4
    91       36           3
    91       43           3
    91       51           1
    91       61           1
    91       63           2
    92       11           4
    92       27           0
    92       39           2
    92       44           3
    92       49           1
    92       58           0
    92       78           2
    92       87           0
    92       94           1
    92      100           1
    93        4           4
    93       17           4
    93       18           3
    93       19           1
    93       39           0
    93       41           4
    93       46           2
    93       55           3
    93       61           0
    93       62           2
    94       25           4
    94       26           1
    94       27           1
    94       51           4
    94       53           1
    94       63           2
    94       66           0
    94       80           1
    94       88           4
    94       90           3
    95        6           3
    95       22           1
    95       30           3
    95       54           3
    95       55           1
    95       61           2
    95       81           4
    95       89           3
    95       92           2
    95       94           2
    96        1           1
    96       16           2
    96       22           2
    96       25           3
    96       33           0
    96       52           1
    96       61           0
    96       68           0
    96       78           3
    96       87           1
    97       20           4
    97       23           4
    97       45           3
    97       80           3
    97       92           4
    97       94           4
    97       97           3
    97       98           2
    97       99           4
    97      100           2
    98        3           4
    98       11           0
    98       21           2
    98       22           4
    98       38           4
    98       57           4
    98       72           3
    98       74           2
    98       88           3
    98       95           2
    99        5           2
    99        9           3
    99       14           4
    99       15           0
    99       33           0
    99       58           2
    99       67           1
    99       87           2
    99       88           3
    99       90           1
   100        9           1
   100       31           4
   100       36           3
   100       43           1
   100       48           0
   100       59           1
   100       64           2
   100       82           2
   100       85           3
   100       89           4
